c CNF file corresponding to a (partial) station packing problem.
p cnf 2455 229
1 2 3 4 5 6 7 8 9 10 11 12 13 14 0
-1 -2 0
-1 -3 0
-1 -4 0
-1 -5 0
-1 -6 0
-1 -7 0
-1 -8 0
-1 -9 0
-1 -10 0
-1 -11 0
-1 -12 0
-1 -13 0
-1 -14 0
-2 -3 0
-2 -4 0
-2 -5 0
-2 -6 0
-2 -7 0
-2 -8 0
-2 -9 0
-2 -10 0
-2 -11 0
-2 -12 0
-2 -13 0
-2 -14 0
-3 -4 0
-3 -5 0
-3 -6 0
-3 -7 0
-3 -8 0
-3 -9 0
-3 -10 0
-3 -11 0
-3 -12 0
-3 -13 0
-3 -14 0
-4 -5 0
-4 -6 0
-4 -7 0
-4 -8 0
-4 -9 0
-4 -10 0
-4 -11 0
-4 -12 0
-4 -13 0
-4 -14 0
-5 -6 0
-5 -7 0
-5 -8 0
-5 -9 0
-5 -10 0
-5 -11 0
-5 -12 0
-5 -13 0
-5 -14 0
-6 -7 0
-6 -8 0
-6 -9 0
-6 -10 0
-6 -11 0
-6 -12 0
-6 -13 0
-6 -14 0
-7 -8 0
-7 -9 0
-7 -10 0
-7 -11 0
-7 -12 0
-7 -13 0
-7 -14 0
-8 -9 0
-8 -10 0
-8 -11 0
-8 -12 0
-8 -13 0
-8 -14 0
-9 -10 0
-9 -11 0
-9 -12 0
-9 -13 0
-9 -14 0
-10 -11 0
-10 -12 0
-10 -13 0
-10 -14 0
-11 -12 0
-11 -13 0
-11 -14 0
-12 -13 0
-12 -14 0
-13 -14 0
2439 2440 2441 2442 2443 2444 2445 2446 2447 2448 2449 2450 2451 2452 2453 2454 2455 0
-2439 -2440 0
-2439 -2441 0
-2439 -2442 0
-2439 -2443 0
-2439 -2444 0
-2439 -2445 0
-2439 -2446 0
-2439 -2447 0
-2439 -2448 0
-2439 -2449 0
-2439 -2450 0
-2439 -2451 0
-2439 -2452 0
-2439 -2453 0
-2439 -2454 0
-2439 -2455 0
-2440 -2441 0
-2440 -2442 0
-2440 -2443 0
-2440 -2444 0
-2440 -2445 0
-2440 -2446 0
-2440 -2447 0
-2440 -2448 0
-2440 -2449 0
-2440 -2450 0
-2440 -2451 0
-2440 -2452 0
-2440 -2453 0
-2440 -2454 0
-2440 -2455 0
-2441 -2442 0
-2441 -2443 0
-2441 -2444 0
-2441 -2445 0
-2441 -2446 0
-2441 -2447 0
-2441 -2448 0
-2441 -2449 0
-2441 -2450 0
-2441 -2451 0
-2441 -2452 0
-2441 -2453 0
-2441 -2454 0
-2441 -2455 0
-2442 -2443 0
-2442 -2444 0
-2442 -2445 0
-2442 -2446 0
-2442 -2447 0
-2442 -2448 0
-2442 -2449 0
-2442 -2450 0
-2442 -2451 0
-2442 -2452 0
-2442 -2453 0
-2442 -2454 0
-2442 -2455 0
-2443 -2444 0
-2443 -2445 0
-2443 -2446 0
-2443 -2447 0
-2443 -2448 0
-2443 -2449 0
-2443 -2450 0
-2443 -2451 0
-2443 -2452 0
-2443 -2453 0
-2443 -2454 0
-2443 -2455 0
-2444 -2445 0
-2444 -2446 0
-2444 -2447 0
-2444 -2448 0
-2444 -2449 0
-2444 -2450 0
-2444 -2451 0
-2444 -2452 0
-2444 -2453 0
-2444 -2454 0
-2444 -2455 0
-2445 -2446 0
-2445 -2447 0
-2445 -2448 0
-2445 -2449 0
-2445 -2450 0
-2445 -2451 0
-2445 -2452 0
-2445 -2453 0
-2445 -2454 0
-2445 -2455 0
-2446 -2447 0
-2446 -2448 0
-2446 -2449 0
-2446 -2450 0
-2446 -2451 0
-2446 -2452 0
-2446 -2453 0
-2446 -2454 0
-2446 -2455 0
-2447 -2448 0
-2447 -2449 0
-2447 -2450 0
-2447 -2451 0
-2447 -2452 0
-2447 -2453 0
-2447 -2454 0
-2447 -2455 0
-2448 -2449 0
-2448 -2450 0
-2448 -2451 0
-2448 -2452 0
-2448 -2453 0
-2448 -2454 0
-2448 -2455 0
-2449 -2450 0
-2449 -2451 0
-2449 -2452 0
-2449 -2453 0
-2449 -2454 0
-2449 -2455 0
-2450 -2451 0
-2450 -2452 0
-2450 -2453 0
-2450 -2454 0
-2450 -2455 0
-2451 -2452 0
-2451 -2453 0
-2451 -2454 0
-2451 -2455 0
-2452 -2453 0
-2452 -2454 0
-2452 -2455 0
-2453 -2454 0
-2453 -2455 0
-2454 -2455 0
